language Essence 1.3

letting bot_end be
        [0, 328, 985, 1215, 1174, 94, 414, 974, 141, 739, 108, 5, 1006, 297, 29, 1289, 1213, 2, 221; int(1..19)]
letting bot_start be
        [891, 1302, 9, 476, 102, 1196, 1313, 10, 1045, 0, 1033, 963, 30, 1217, 972, 279, 294, 795, 1176; int(1..19)]
letting buffer_col be 2
letting buffer_row be 2
letting corridor_size be 1
letting n_shelves_col be 5
letting n_shelves_row be 33
letting shelf_col_size be 2
letting shelf_row_size be 1
